
Gurobi 13.0.1 (linux64) logging started Sun Mar 22 13:38:43 2026

Set parameter LogFile to value "logs/100B_3F_robust_gamma_1_theta_0d05199999999999999_2026-03-22_13h37m42s.log"
Set parameter MIPGap to value 0.005
Set parameter OptimalityTol to value 0.005
Gurobi Optimizer version 13.0.1 build v13.0.1rc0 (linux64 - "openSUSE Tumbleweed")

CPU model: Intel(R) Core(TM) i7-10610U CPU @ 1.80GHz, instruction set [SSE2|AVX|AVX2]
Thread count: 4 physical cores, 8 logical processors, using up to 8 threads

Non-default parameters:
TimeLimit  3600
SoftMemLimit  12
MIPGap  0.005
OptimalityTol  0.005

Optimize a model with 60721 rows, 1531121 columns and 4635098 nonzeros (Max)
Model fingerprint: 0x0c16ee9f
Model has 1485111 linear objective coefficients
Variable types: 16121 continuous, 1515000 integer (1515000 binary)
Coefficient statistics:
  Matrix range     [3e-05, 2e+05]
  Objective range  [1e+00, 3e+03]
  Bounds range     [1e+00, 1e+05]
  RHS range        [1e+00, 1e+05]

Presolve removed 36714 rows and 1241081 columns
Presolve time: 1.20s
Presolved: 24007 rows, 290040 columns, 921754 nonzeros
Variable types: 6446 continuous, 283594 integer (283594 binary)
Found heuristic solution: objective -4.95506e+08
Performing another presolve...
Presolve added 0 rows and 10 columns
Presolve removed 18 rows and 0 columns
Presolve time: 1.86s
Deterministic concurrent LP optimizer: primal simplex, dual simplex, and barrier
Showing barrier log only...

Root barrier log...

Ordering time: 0.96s

Barrier statistics:
 AA' NZ     : 4.530e+05
 Factor NZ  : 4.055e+06 (roughly 160 MB of memory)
 Factor Ops : 1.381e+09 (less than 1 second per iteration)
 Threads    : 2

                  Objective                Residual
Iter       Primal          Dual         Primal    Dual     Compl     Time
   0  -3.36709994e+12  1.35063458e+09  1.33e+08 1.02e+03  3.41e+07     7s
   1  -3.74573563e+11  5.38271972e+09  1.48e+07 2.55e-11  3.93e+06     7s
   2  -9.53552898e+09  2.73835484e+09  3.76e+05 7.19e-11  1.04e+05     7s
   3  -7.89379145e+08  1.85569180e+09  3.24e+04 6.64e-11  1.17e+04     8s
   4   1.92021167e+08  9.33612189e+08  2.01e+03 5.24e-11  1.62e+03     8s
   5   2.45963693e+08  3.08593473e+08  1.68e+02 4.24e-11  1.26e+02     8s
   6   2.51040155e+08  2.56353595e+08  9.35e-03 1.11e-10  8.97e+00     8s
   7   2.51074931e+08  2.52131033e+08  2.36e-05 3.12e-10  1.78e+00     9s
   8   2.51133433e+08  2.51695218e+08  5.05e-07 2.28e-10  9.49e-01     9s
   9   2.51168349e+08  2.51482321e+08  1.10e-07 1.77e-10  5.30e-01     9s
  10   2.51188243e+08  2.51317985e+08  1.20e-08 1.56e-10  2.19e-01     9s
  11   2.51193204e+08  2.51261139e+08  5.59e-09 1.71e-10  1.15e-01     9s
  12   2.51197644e+08  2.51234491e+08  1.49e-09 1.72e-10  6.22e-02    10s
  13   2.51198982e+08  2.51221224e+08  6.05e-10 1.88e-10  3.76e-02    10s
  14   2.51199381e+08  2.51212179e+08  3.93e-10 1.54e-10  2.16e-02    10s
  15   2.51199725e+08  2.51207928e+08  4.66e-10 1.86e-10  1.39e-02    10s
  16   2.51200129e+08  2.51205682e+08  1.42e-10 2.05e-10  9.38e-03    10s
  17   2.51200350e+08  2.51203583e+08  2.91e-10 2.02e-10  5.46e-03    11s
  18   2.51200540e+08  2.51202809e+08  2.03e-10 2.17e-10  3.83e-03    11s
  19   2.51200585e+08  2.51202011e+08  1.28e-10 1.69e-10  2.41e-03    11s
  20   2.51200605e+08  2.51201459e+08  2.33e-10 1.66e-10  1.44e-03    11s
  21   2.51200679e+08  2.51201134e+08  8.25e-10 1.68e-10  7.68e-04    11s
  22   2.51200730e+08  2.51201017e+08  6.40e-10 1.78e-10  4.84e-04    12s
  23   2.51200749e+08  2.51200885e+08  7.49e-10 1.64e-10  2.30e-04    12s
  24   2.51200761e+08  2.51200842e+08  8.19e-10 1.57e-10  1.38e-04    12s
  25   2.51200764e+08  2.51200807e+08  6.98e-10 1.59e-10  7.26e-05    12s
  26   2.51200775e+08  2.51200787e+08  7.15e-10 1.35e-10  2.10e-05    13s
  27   2.51200781e+08  2.51200782e+08  5.89e-10 1.13e-10  1.34e-06    13s
  28   2.51200781e+08  2.51200781e+08  3.38e-09 1.12e-10  2.40e-08    13s
  29   2.51200781e+08  2.51200781e+08  2.75e-10 1.10e-10  2.22e-11    13s

Barrier solved model in 29 iterations and 13.26 seconds (9.37 work units)
Optimal objective 2.51200781e+08


Root crossover log...

    7130 DPushes remaining with DInf 0.0000000e+00                13s
       0 DPushes remaining with DInf 0.0000000e+00                13s

    2347 PPushes remaining with PInf 1.0567741e-04                13s
       0 PPushes remaining with PInf 0.0000000e+00                14s

  Push phase complete: Pinf 0.0000000e+00, Dinf 4.0714210e+05     14s


Root simplex log...

Iteration    Objective       Primal Inf.    Dual Inf.      Time
    9333    2.5120078e+08   0.000000e+00   4.071404e+05     14s
   12999    2.5120078e+08   0.000000e+00   8.717974e+03     15s
   15033    2.5120078e+08   0.000000e+00   0.000000e+00     16s
Crossover time: 2.70 seconds (1.97 work units)
Concurrent spin time: 0.87s

Solved with barrier

Root relaxation: objective 2.512008e+08, 15033 iterations, 11.80 seconds (6.70 work units)
Total elapsed time = 16.86s (DegenMoves)

    Nodes    |    Current Node    |     Objective Bounds      |     Work
 Expl Unexpl |  Obj  Depth IntInf | Incumbent    BestBd   Gap | It/Node Time

     0     0 2.5120e+08    0 4793 -4.955e+08 2.5120e+08   151%     -   17s
H    0     0                    -5628056.266 2.5120e+08  4563%     -   18s
H    0     0                    6.797582e+07 2.5120e+08   270%     -   18s
H    0     0                    7.627109e+07 2.5120e+08   229%     -   18s
H    0     0                    7.678481e+07 2.5120e+08   227%     -   19s
H    0     0                    7.679274e+07 2.5120e+08   227%     -   19s
H    0     0                    7.679353e+07 2.5120e+08   227%     -   21s
H    0     0                    8.189395e+07 2.5120e+08   207%     -   22s
H    0     0                    9.685303e+07 2.5120e+08   159%     -   23s
H    0     0                    1.356313e+08 2.5120e+08  85.2%     -   24s
H    0     0                    1.362958e+08 2.5120e+08  84.3%     -   27s
H    0     0                    1.481741e+08 2.5120e+08  69.5%     -   27s
     0     0 2.5120e+08    0 5287 1.4817e+08 2.5120e+08  69.5%     -  622s
H    0     0                    1.494624e+08 2.5120e+08  68.1%     -  643s
H    0     0                    1.734187e+08 2.5120e+08  44.9%     -  653s
H    0     0                    1.734190e+08 2.5120e+08  44.9%     -  688s
H    0     0                    1.760304e+08 2.5120e+08  42.7%     -  760s
H    0     0                    1.760337e+08 2.5120e+08  42.7%     -  776s
H    0     0                    1.760338e+08 2.5120e+08  42.7%     -  784s
H    0     0                    1.760339e+08 2.5120e+08  42.7%     -  808s
     0     0 2.5120e+08    0 5228 1.7603e+08 2.5120e+08  42.7%     - 2183s
H    0     0                    2.274470e+08 2.5120e+08  10.4%     - 2191s
H    0     0                    2.511234e+08 2.5120e+08  0.03%     - 2192s

Cutting planes:
  RLT: 2671

Explored 1 nodes (864310 simplex iterations) in 2193.03 seconds (2773.33 work units)
Thread count was 8 (of 8 available processors)

Solution count 10: 2.51123e+08 2.27447e+08 1.76034e+08 ... 1.48174e+08

Optimal solution found (tolerance 5.00e-03)
Best objective 2.511234143444e+08, best bound 2.512001209880e+08, gap 0.0305%
